
%FILE DATA:	Soccer Computational Problem for MiniZinc Models	%
%AUTHOR:	Jack Wall	%
%CONTACT:  	116397063@umail.ucc.ie			%
%LAST UPDATE:	03/03/2020, 16:38:38						%
%DESCRIPTION: 	99 games played with 11 games left				%


n=11; %number of teams

%Games to play
games=[|10,8|5,7|9,4|1,6|8,4|2,11|4,5|4,10|5,3|3,4|7,3|];

%Initial points
iPoints=[24,25,22,25,28,22,14,28,21,30,25];

%POSITION CONSTRAINTS
% [|teamID, operator, position|...]
% operators index:
%  1 for =  operator
%  2 for >  operator
%  3 for >= operator
%  4 for <  operator
%  5 for <= operator
positionConstraints=[|5,3,1|10,2,1|4,5,3|];